42    4
10    10    12    10    
0   0   0   0   0     4      5    3    4    2  
4   0   4   0   0     3      6    18    28  
10   0   2   0   0     4      8    10    12    6  
7   0   0   0   9     1      33  
6   3   0   0   0     1      7  
6   1   0   0   0     3      36    19    28  
8   6   0   0   0     2      10    8  
7   2   0   0   0     1      9  
9   0   0   0   10     3      28    31    11  
7   0   0   0   2     2      11    28  
6   0   0   1   0     2      12    17  
5   0   0   0   9     3      39    26    13  
5   0   6   0   0     4      33    19    14    30  
3   1   0   0   0     3      15    25    31  
3   0   0   8   0     3      29    16    22  
3   0   0   6   0     3      32    17    22  
9   0   0   0   5     1      18  
9   0   0   0   9     4      40    20    26    21  
8   0   0   0   6     2      40    25  
1   0   0   9   0     2      21    40  
3   0   0   0   10     2      40    22  
10   0   8   0   0     1      23  
4   6   0   0   0     2      38    24  
7   10   0   0   0     1      26  
10   0   9   0   0     1      29  
7   0   0   4   0     1      27  
10   0   0   0   5     2      41    30  
5   0   0   6   0     1      39  
6   0   7   0   0     2      38    32  
7   0   0   0   4     1      31  
2   0   0   10   0     2      33    37  
6   0   7   0   0     2      41    38  
9   0   10   0   0     2      41    34  
6   0   0   1   0     5      39    40    41    37    35  
3   0   0   0   4     2      36    40  
1   0   0   7   0     2      40    37  
10   0   0   0   4     1      39  
9   0   0   9   0     1      41  
8   0   0   0   9     1      40  
2   0   8   0   0     1      42  
8   0   8   0   0     1      42  
0   0   0   0   0     0    
